NAME : E-n25-k9
CAPACITY : 427
NODE_COORD_SECTION
1   86   392
2   263   245
3   151   332
4   175   143
5   479   104
6   206   389
7   102   282
8   144   479
9   82   348
10   126   128
11   165   142
12   402   186
13   158   498
14   416   487
15   315   490
16   214   401
17   418   386
18   216   252
19   70   164
20   138   452
21   260   414
22   272   217
23   158   258
24   384   422
25   491   305
DEMAND_SECTION
1   0
2   85
3   14
4   12
5   72
6   65
7   89
8   62
9   16
10   87
11   29
12   61
13   75
14   36
15   67
16   23
17   59
18   57
19   42
20   98
21   33
22   30
23   81
24   81
25   69
DEPOT_SECTION
    1
    -1
EOF